/* Objective function */
min: 5 y1m + 2 M y2p + 4 y2m + 3 M y3p;

/* Constraints */
12 x1 + 9 x2 + 15 x3 - y1p + y2m = 125;
5 x1 + 3 x2 + 4 x3 - y2p + y2m = 40;
5 x1 + 7 x2 + 8 x3 - y3p + y3m =55;
M=1000;